c *********************************
c * Circuit generated by BenCGen
c *
c * Parity_348
c *
c * Ports with 1 gate(s): 1
c * Ports with 2 gate(s): 348
c * Total gates: 349
c *********************************
p cnf 697 1393
1 351 0
-1 -351 0
1 -350 0
351 -350 0
-1 -351 350 0
1 2 -352 0
-1 2 352 0
1 -2 352 0
-1 -2 -352 0
3 4 -353 0
-3 4 353 0
3 -4 353 0
-3 -4 -353 0
5 6 -354 0
-5 6 354 0
5 -6 354 0
-5 -6 -354 0
7 8 -355 0
-7 8 355 0
7 -8 355 0
-7 -8 -355 0
9 10 -356 0
-9 10 356 0
9 -10 356 0
-9 -10 -356 0
11 12 -357 0
-11 12 357 0
11 -12 357 0
-11 -12 -357 0
13 14 -358 0
-13 14 358 0
13 -14 358 0
-13 -14 -358 0
15 16 -359 0
-15 16 359 0
15 -16 359 0
-15 -16 -359 0
17 18 -360 0
-17 18 360 0
17 -18 360 0
-17 -18 -360 0
19 20 -361 0
-19 20 361 0
19 -20 361 0
-19 -20 -361 0
21 22 -362 0
-21 22 362 0
21 -22 362 0
-21 -22 -362 0
23 24 -363 0
-23 24 363 0
23 -24 363 0
-23 -24 -363 0
25 26 -364 0
-25 26 364 0
25 -26 364 0
-25 -26 -364 0
27 28 -365 0
-27 28 365 0
27 -28 365 0
-27 -28 -365 0
29 30 -366 0
-29 30 366 0
29 -30 366 0
-29 -30 -366 0
31 32 -367 0
-31 32 367 0
31 -32 367 0
-31 -32 -367 0
33 34 -368 0
-33 34 368 0
33 -34 368 0
-33 -34 -368 0
35 36 -369 0
-35 36 369 0
35 -36 369 0
-35 -36 -369 0
37 38 -370 0
-37 38 370 0
37 -38 370 0
-37 -38 -370 0
39 40 -371 0
-39 40 371 0
39 -40 371 0
-39 -40 -371 0
41 42 -372 0
-41 42 372 0
41 -42 372 0
-41 -42 -372 0
43 44 -373 0
-43 44 373 0
43 -44 373 0
-43 -44 -373 0
45 46 -374 0
-45 46 374 0
45 -46 374 0
-45 -46 -374 0
47 48 -375 0
-47 48 375 0
47 -48 375 0
-47 -48 -375 0
49 50 -376 0
-49 50 376 0
49 -50 376 0
-49 -50 -376 0
51 52 -377 0
-51 52 377 0
51 -52 377 0
-51 -52 -377 0
53 54 -378 0
-53 54 378 0
53 -54 378 0
-53 -54 -378 0
55 56 -379 0
-55 56 379 0
55 -56 379 0
-55 -56 -379 0
57 58 -380 0
-57 58 380 0
57 -58 380 0
-57 -58 -380 0
59 60 -381 0
-59 60 381 0
59 -60 381 0
-59 -60 -381 0
61 62 -382 0
-61 62 382 0
61 -62 382 0
-61 -62 -382 0
63 64 -383 0
-63 64 383 0
63 -64 383 0
-63 -64 -383 0
65 66 -384 0
-65 66 384 0
65 -66 384 0
-65 -66 -384 0
67 68 -385 0
-67 68 385 0
67 -68 385 0
-67 -68 -385 0
69 70 -386 0
-69 70 386 0
69 -70 386 0
-69 -70 -386 0
71 72 -387 0
-71 72 387 0
71 -72 387 0
-71 -72 -387 0
73 74 -388 0
-73 74 388 0
73 -74 388 0
-73 -74 -388 0
75 76 -389 0
-75 76 389 0
75 -76 389 0
-75 -76 -389 0
77 78 -390 0
-77 78 390 0
77 -78 390 0
-77 -78 -390 0
79 80 -391 0
-79 80 391 0
79 -80 391 0
-79 -80 -391 0
81 82 -392 0
-81 82 392 0
81 -82 392 0
-81 -82 -392 0
83 84 -393 0
-83 84 393 0
83 -84 393 0
-83 -84 -393 0
85 86 -394 0
-85 86 394 0
85 -86 394 0
-85 -86 -394 0
87 88 -395 0
-87 88 395 0
87 -88 395 0
-87 -88 -395 0
89 90 -396 0
-89 90 396 0
89 -90 396 0
-89 -90 -396 0
91 92 -397 0
-91 92 397 0
91 -92 397 0
-91 -92 -397 0
93 94 -398 0
-93 94 398 0
93 -94 398 0
-93 -94 -398 0
95 96 -399 0
-95 96 399 0
95 -96 399 0
-95 -96 -399 0
97 98 -400 0
-97 98 400 0
97 -98 400 0
-97 -98 -400 0
99 100 -401 0
-99 100 401 0
99 -100 401 0
-99 -100 -401 0
101 102 -402 0
-101 102 402 0
101 -102 402 0
-101 -102 -402 0
103 104 -403 0
-103 104 403 0
103 -104 403 0
-103 -104 -403 0
105 106 -404 0
-105 106 404 0
105 -106 404 0
-105 -106 -404 0
107 108 -405 0
-107 108 405 0
107 -108 405 0
-107 -108 -405 0
109 110 -406 0
-109 110 406 0
109 -110 406 0
-109 -110 -406 0
111 112 -407 0
-111 112 407 0
111 -112 407 0
-111 -112 -407 0
113 114 -408 0
-113 114 408 0
113 -114 408 0
-113 -114 -408 0
115 116 -409 0
-115 116 409 0
115 -116 409 0
-115 -116 -409 0
117 118 -410 0
-117 118 410 0
117 -118 410 0
-117 -118 -410 0
119 120 -411 0
-119 120 411 0
119 -120 411 0
-119 -120 -411 0
121 122 -412 0
-121 122 412 0
121 -122 412 0
-121 -122 -412 0
123 124 -413 0
-123 124 413 0
123 -124 413 0
-123 -124 -413 0
125 126 -414 0
-125 126 414 0
125 -126 414 0
-125 -126 -414 0
127 128 -415 0
-127 128 415 0
127 -128 415 0
-127 -128 -415 0
129 130 -416 0
-129 130 416 0
129 -130 416 0
-129 -130 -416 0
131 132 -417 0
-131 132 417 0
131 -132 417 0
-131 -132 -417 0
133 134 -418 0
-133 134 418 0
133 -134 418 0
-133 -134 -418 0
135 136 -419 0
-135 136 419 0
135 -136 419 0
-135 -136 -419 0
137 138 -420 0
-137 138 420 0
137 -138 420 0
-137 -138 -420 0
139 140 -421 0
-139 140 421 0
139 -140 421 0
-139 -140 -421 0
141 142 -422 0
-141 142 422 0
141 -142 422 0
-141 -142 -422 0
143 144 -423 0
-143 144 423 0
143 -144 423 0
-143 -144 -423 0
145 146 -424 0
-145 146 424 0
145 -146 424 0
-145 -146 -424 0
147 148 -425 0
-147 148 425 0
147 -148 425 0
-147 -148 -425 0
149 150 -426 0
-149 150 426 0
149 -150 426 0
-149 -150 -426 0
151 152 -427 0
-151 152 427 0
151 -152 427 0
-151 -152 -427 0
153 154 -428 0
-153 154 428 0
153 -154 428 0
-153 -154 -428 0
155 156 -429 0
-155 156 429 0
155 -156 429 0
-155 -156 -429 0
157 158 -430 0
-157 158 430 0
157 -158 430 0
-157 -158 -430 0
159 160 -431 0
-159 160 431 0
159 -160 431 0
-159 -160 -431 0
161 162 -432 0
-161 162 432 0
161 -162 432 0
-161 -162 -432 0
163 164 -433 0
-163 164 433 0
163 -164 433 0
-163 -164 -433 0
165 166 -434 0
-165 166 434 0
165 -166 434 0
-165 -166 -434 0
167 168 -435 0
-167 168 435 0
167 -168 435 0
-167 -168 -435 0
169 170 -436 0
-169 170 436 0
169 -170 436 0
-169 -170 -436 0
171 172 -437 0
-171 172 437 0
171 -172 437 0
-171 -172 -437 0
173 174 -438 0
-173 174 438 0
173 -174 438 0
-173 -174 -438 0
175 176 -439 0
-175 176 439 0
175 -176 439 0
-175 -176 -439 0
177 178 -440 0
-177 178 440 0
177 -178 440 0
-177 -178 -440 0
179 180 -441 0
-179 180 441 0
179 -180 441 0
-179 -180 -441 0
181 182 -442 0
-181 182 442 0
181 -182 442 0
-181 -182 -442 0
183 184 -443 0
-183 184 443 0
183 -184 443 0
-183 -184 -443 0
185 186 -444 0
-185 186 444 0
185 -186 444 0
-185 -186 -444 0
187 188 -445 0
-187 188 445 0
187 -188 445 0
-187 -188 -445 0
189 190 -446 0
-189 190 446 0
189 -190 446 0
-189 -190 -446 0
191 192 -447 0
-191 192 447 0
191 -192 447 0
-191 -192 -447 0
193 194 -448 0
-193 194 448 0
193 -194 448 0
-193 -194 -448 0
195 196 -449 0
-195 196 449 0
195 -196 449 0
-195 -196 -449 0
197 198 -450 0
-197 198 450 0
197 -198 450 0
-197 -198 -450 0
199 200 -451 0
-199 200 451 0
199 -200 451 0
-199 -200 -451 0
201 202 -452 0
-201 202 452 0
201 -202 452 0
-201 -202 -452 0
203 204 -453 0
-203 204 453 0
203 -204 453 0
-203 -204 -453 0
205 206 -454 0
-205 206 454 0
205 -206 454 0
-205 -206 -454 0
207 208 -455 0
-207 208 455 0
207 -208 455 0
-207 -208 -455 0
209 210 -456 0
-209 210 456 0
209 -210 456 0
-209 -210 -456 0
211 212 -457 0
-211 212 457 0
211 -212 457 0
-211 -212 -457 0
213 214 -458 0
-213 214 458 0
213 -214 458 0
-213 -214 -458 0
215 216 -459 0
-215 216 459 0
215 -216 459 0
-215 -216 -459 0
217 218 -460 0
-217 218 460 0
217 -218 460 0
-217 -218 -460 0
219 220 -461 0
-219 220 461 0
219 -220 461 0
-219 -220 -461 0
221 222 -462 0
-221 222 462 0
221 -222 462 0
-221 -222 -462 0
223 224 -463 0
-223 224 463 0
223 -224 463 0
-223 -224 -463 0
225 226 -464 0
-225 226 464 0
225 -226 464 0
-225 -226 -464 0
227 228 -465 0
-227 228 465 0
227 -228 465 0
-227 -228 -465 0
229 230 -466 0
-229 230 466 0
229 -230 466 0
-229 -230 -466 0
231 232 -467 0
-231 232 467 0
231 -232 467 0
-231 -232 -467 0
233 234 -468 0
-233 234 468 0
233 -234 468 0
-233 -234 -468 0
235 236 -469 0
-235 236 469 0
235 -236 469 0
-235 -236 -469 0
237 238 -470 0
-237 238 470 0
237 -238 470 0
-237 -238 -470 0
239 240 -471 0
-239 240 471 0
239 -240 471 0
-239 -240 -471 0
241 242 -472 0
-241 242 472 0
241 -242 472 0
-241 -242 -472 0
243 244 -473 0
-243 244 473 0
243 -244 473 0
-243 -244 -473 0
245 246 -474 0
-245 246 474 0
245 -246 474 0
-245 -246 -474 0
247 248 -475 0
-247 248 475 0
247 -248 475 0
-247 -248 -475 0
249 250 -476 0
-249 250 476 0
249 -250 476 0
-249 -250 -476 0
251 252 -477 0
-251 252 477 0
251 -252 477 0
-251 -252 -477 0
253 254 -478 0
-253 254 478 0
253 -254 478 0
-253 -254 -478 0
255 256 -479 0
-255 256 479 0
255 -256 479 0
-255 -256 -479 0
257 258 -480 0
-257 258 480 0
257 -258 480 0
-257 -258 -480 0
259 260 -481 0
-259 260 481 0
259 -260 481 0
-259 -260 -481 0
261 262 -482 0
-261 262 482 0
261 -262 482 0
-261 -262 -482 0
263 264 -483 0
-263 264 483 0
263 -264 483 0
-263 -264 -483 0
265 266 -484 0
-265 266 484 0
265 -266 484 0
-265 -266 -484 0
267 268 -485 0
-267 268 485 0
267 -268 485 0
-267 -268 -485 0
269 270 -486 0
-269 270 486 0
269 -270 486 0
-269 -270 -486 0
271 272 -487 0
-271 272 487 0
271 -272 487 0
-271 -272 -487 0
273 274 -488 0
-273 274 488 0
273 -274 488 0
-273 -274 -488 0
275 276 -489 0
-275 276 489 0
275 -276 489 0
-275 -276 -489 0
277 278 -490 0
-277 278 490 0
277 -278 490 0
-277 -278 -490 0
279 280 -491 0
-279 280 491 0
279 -280 491 0
-279 -280 -491 0
281 282 -492 0
-281 282 492 0
281 -282 492 0
-281 -282 -492 0
283 284 -493 0
-283 284 493 0
283 -284 493 0
-283 -284 -493 0
285 286 -494 0
-285 286 494 0
285 -286 494 0
-285 -286 -494 0
287 288 -495 0
-287 288 495 0
287 -288 495 0
-287 -288 -495 0
289 290 -496 0
-289 290 496 0
289 -290 496 0
-289 -290 -496 0
291 292 -497 0
-291 292 497 0
291 -292 497 0
-291 -292 -497 0
293 294 -498 0
-293 294 498 0
293 -294 498 0
-293 -294 -498 0
295 296 -499 0
-295 296 499 0
295 -296 499 0
-295 -296 -499 0
297 298 -500 0
-297 298 500 0
297 -298 500 0
-297 -298 -500 0
299 300 -501 0
-299 300 501 0
299 -300 501 0
-299 -300 -501 0
301 302 -502 0
-301 302 502 0
301 -302 502 0
-301 -302 -502 0
303 304 -503 0
-303 304 503 0
303 -304 503 0
-303 -304 -503 0
305 306 -504 0
-305 306 504 0
305 -306 504 0
-305 -306 -504 0
307 308 -505 0
-307 308 505 0
307 -308 505 0
-307 -308 -505 0
309 310 -506 0
-309 310 506 0
309 -310 506 0
-309 -310 -506 0
311 312 -507 0
-311 312 507 0
311 -312 507 0
-311 -312 -507 0
313 314 -508 0
-313 314 508 0
313 -314 508 0
-313 -314 -508 0
315 316 -509 0
-315 316 509 0
315 -316 509 0
-315 -316 -509 0
317 318 -510 0
-317 318 510 0
317 -318 510 0
-317 -318 -510 0
319 320 -511 0
-319 320 511 0
319 -320 511 0
-319 -320 -511 0
321 322 -512 0
-321 322 512 0
321 -322 512 0
-321 -322 -512 0
323 324 -513 0
-323 324 513 0
323 -324 513 0
-323 -324 -513 0
325 326 -514 0
-325 326 514 0
325 -326 514 0
-325 -326 -514 0
327 328 -515 0
-327 328 515 0
327 -328 515 0
-327 -328 -515 0
329 330 -516 0
-329 330 516 0
329 -330 516 0
-329 -330 -516 0
331 332 -517 0
-331 332 517 0
331 -332 517 0
-331 -332 -517 0
333 334 -518 0
-333 334 518 0
333 -334 518 0
-333 -334 -518 0
335 336 -519 0
-335 336 519 0
335 -336 519 0
-335 -336 -519 0
337 338 -520 0
-337 338 520 0
337 -338 520 0
-337 -338 -520 0
339 340 -521 0
-339 340 521 0
339 -340 521 0
-339 -340 -521 0
341 342 -522 0
-341 342 522 0
341 -342 522 0
-341 -342 -522 0
343 344 -523 0
-343 344 523 0
343 -344 523 0
-343 -344 -523 0
345 346 -524 0
-345 346 524 0
345 -346 524 0
-345 -346 -524 0
347 348 -525 0
-347 348 525 0
347 -348 525 0
-347 -348 -525 0
352 353 -526 0
-352 353 526 0
352 -353 526 0
-352 -353 -526 0
354 355 -527 0
-354 355 527 0
354 -355 527 0
-354 -355 -527 0
356 357 -528 0
-356 357 528 0
356 -357 528 0
-356 -357 -528 0
358 359 -529 0
-358 359 529 0
358 -359 529 0
-358 -359 -529 0
360 361 -530 0
-360 361 530 0
360 -361 530 0
-360 -361 -530 0
362 363 -531 0
-362 363 531 0
362 -363 531 0
-362 -363 -531 0
364 365 -532 0
-364 365 532 0
364 -365 532 0
-364 -365 -532 0
366 367 -533 0
-366 367 533 0
366 -367 533 0
-366 -367 -533 0
368 369 -534 0
-368 369 534 0
368 -369 534 0
-368 -369 -534 0
370 371 -535 0
-370 371 535 0
370 -371 535 0
-370 -371 -535 0
372 373 -536 0
-372 373 536 0
372 -373 536 0
-372 -373 -536 0
374 375 -537 0
-374 375 537 0
374 -375 537 0
-374 -375 -537 0
376 377 -538 0
-376 377 538 0
376 -377 538 0
-376 -377 -538 0
378 379 -539 0
-378 379 539 0
378 -379 539 0
-378 -379 -539 0
380 381 -540 0
-380 381 540 0
380 -381 540 0
-380 -381 -540 0
382 383 -541 0
-382 383 541 0
382 -383 541 0
-382 -383 -541 0
384 385 -542 0
-384 385 542 0
384 -385 542 0
-384 -385 -542 0
386 387 -543 0
-386 387 543 0
386 -387 543 0
-386 -387 -543 0
388 389 -544 0
-388 389 544 0
388 -389 544 0
-388 -389 -544 0
390 391 -545 0
-390 391 545 0
390 -391 545 0
-390 -391 -545 0
392 393 -546 0
-392 393 546 0
392 -393 546 0
-392 -393 -546 0
394 395 -547 0
-394 395 547 0
394 -395 547 0
-394 -395 -547 0
396 397 -548 0
-396 397 548 0
396 -397 548 0
-396 -397 -548 0
398 399 -549 0
-398 399 549 0
398 -399 549 0
-398 -399 -549 0
400 401 -550 0
-400 401 550 0
400 -401 550 0
-400 -401 -550 0
402 403 -551 0
-402 403 551 0
402 -403 551 0
-402 -403 -551 0
404 405 -552 0
-404 405 552 0
404 -405 552 0
-404 -405 -552 0
406 407 -553 0
-406 407 553 0
406 -407 553 0
-406 -407 -553 0
408 409 -554 0
-408 409 554 0
408 -409 554 0
-408 -409 -554 0
410 411 -555 0
-410 411 555 0
410 -411 555 0
-410 -411 -555 0
412 413 -556 0
-412 413 556 0
412 -413 556 0
-412 -413 -556 0
414 415 -557 0
-414 415 557 0
414 -415 557 0
-414 -415 -557 0
416 417 -558 0
-416 417 558 0
416 -417 558 0
-416 -417 -558 0
418 419 -559 0
-418 419 559 0
418 -419 559 0
-418 -419 -559 0
420 421 -560 0
-420 421 560 0
420 -421 560 0
-420 -421 -560 0
422 423 -561 0
-422 423 561 0
422 -423 561 0
-422 -423 -561 0
424 425 -562 0
-424 425 562 0
424 -425 562 0
-424 -425 -562 0
426 427 -563 0
-426 427 563 0
426 -427 563 0
-426 -427 -563 0
428 429 -564 0
-428 429 564 0
428 -429 564 0
-428 -429 -564 0
430 431 -565 0
-430 431 565 0
430 -431 565 0
-430 -431 -565 0
432 433 -566 0
-432 433 566 0
432 -433 566 0
-432 -433 -566 0
434 435 -567 0
-434 435 567 0
434 -435 567 0
-434 -435 -567 0
436 437 -568 0
-436 437 568 0
436 -437 568 0
-436 -437 -568 0
438 439 -569 0
-438 439 569 0
438 -439 569 0
-438 -439 -569 0
440 441 -570 0
-440 441 570 0
440 -441 570 0
-440 -441 -570 0
442 443 -571 0
-442 443 571 0
442 -443 571 0
-442 -443 -571 0
444 445 -572 0
-444 445 572 0
444 -445 572 0
-444 -445 -572 0
446 447 -573 0
-446 447 573 0
446 -447 573 0
-446 -447 -573 0
448 449 -574 0
-448 449 574 0
448 -449 574 0
-448 -449 -574 0
450 451 -575 0
-450 451 575 0
450 -451 575 0
-450 -451 -575 0
452 453 -576 0
-452 453 576 0
452 -453 576 0
-452 -453 -576 0
454 455 -577 0
-454 455 577 0
454 -455 577 0
-454 -455 -577 0
456 457 -578 0
-456 457 578 0
456 -457 578 0
-456 -457 -578 0
458 459 -579 0
-458 459 579 0
458 -459 579 0
-458 -459 -579 0
460 461 -580 0
-460 461 580 0
460 -461 580 0
-460 -461 -580 0
462 463 -581 0
-462 463 581 0
462 -463 581 0
-462 -463 -581 0
464 465 -582 0
-464 465 582 0
464 -465 582 0
-464 -465 -582 0
466 467 -583 0
-466 467 583 0
466 -467 583 0
-466 -467 -583 0
468 469 -584 0
-468 469 584 0
468 -469 584 0
-468 -469 -584 0
470 471 -585 0
-470 471 585 0
470 -471 585 0
-470 -471 -585 0
472 473 -586 0
-472 473 586 0
472 -473 586 0
-472 -473 -586 0
474 475 -587 0
-474 475 587 0
474 -475 587 0
-474 -475 -587 0
476 477 -588 0
-476 477 588 0
476 -477 588 0
-476 -477 -588 0
478 479 -589 0
-478 479 589 0
478 -479 589 0
-478 -479 -589 0
480 481 -590 0
-480 481 590 0
480 -481 590 0
-480 -481 -590 0
482 483 -591 0
-482 483 591 0
482 -483 591 0
-482 -483 -591 0
484 485 -592 0
-484 485 592 0
484 -485 592 0
-484 -485 -592 0
486 487 -593 0
-486 487 593 0
486 -487 593 0
-486 -487 -593 0
488 489 -594 0
-488 489 594 0
488 -489 594 0
-488 -489 -594 0
490 491 -595 0
-490 491 595 0
490 -491 595 0
-490 -491 -595 0
492 493 -596 0
-492 493 596 0
492 -493 596 0
-492 -493 -596 0
494 495 -597 0
-494 495 597 0
494 -495 597 0
-494 -495 -597 0
496 497 -598 0
-496 497 598 0
496 -497 598 0
-496 -497 -598 0
498 499 -599 0
-498 499 599 0
498 -499 599 0
-498 -499 -599 0
500 501 -600 0
-500 501 600 0
500 -501 600 0
-500 -501 -600 0
502 503 -601 0
-502 503 601 0
502 -503 601 0
-502 -503 -601 0
504 505 -602 0
-504 505 602 0
504 -505 602 0
-504 -505 -602 0
506 507 -603 0
-506 507 603 0
506 -507 603 0
-506 -507 -603 0
508 509 -604 0
-508 509 604 0
508 -509 604 0
-508 -509 -604 0
510 511 -605 0
-510 511 605 0
510 -511 605 0
-510 -511 -605 0
512 513 -606 0
-512 513 606 0
512 -513 606 0
-512 -513 -606 0
514 515 -607 0
-514 515 607 0
514 -515 607 0
-514 -515 -607 0
516 517 -608 0
-516 517 608 0
516 -517 608 0
-516 -517 -608 0
518 519 -609 0
-518 519 609 0
518 -519 609 0
-518 -519 -609 0
520 521 -610 0
-520 521 610 0
520 -521 610 0
-520 -521 -610 0
522 523 -611 0
-522 523 611 0
522 -523 611 0
-522 -523 -611 0
524 525 -612 0
-524 525 612 0
524 -525 612 0
-524 -525 -612 0
526 527 -613 0
-526 527 613 0
526 -527 613 0
-526 -527 -613 0
528 529 -614 0
-528 529 614 0
528 -529 614 0
-528 -529 -614 0
530 531 -615 0
-530 531 615 0
530 -531 615 0
-530 -531 -615 0
532 533 -616 0
-532 533 616 0
532 -533 616 0
-532 -533 -616 0
534 535 -617 0
-534 535 617 0
534 -535 617 0
-534 -535 -617 0
536 537 -618 0
-536 537 618 0
536 -537 618 0
-536 -537 -618 0
538 539 -619 0
-538 539 619 0
538 -539 619 0
-538 -539 -619 0
540 541 -620 0
-540 541 620 0
540 -541 620 0
-540 -541 -620 0
542 543 -621 0
-542 543 621 0
542 -543 621 0
-542 -543 -621 0
544 545 -622 0
-544 545 622 0
544 -545 622 0
-544 -545 -622 0
546 547 -623 0
-546 547 623 0
546 -547 623 0
-546 -547 -623 0
548 549 -624 0
-548 549 624 0
548 -549 624 0
-548 -549 -624 0
550 551 -625 0
-550 551 625 0
550 -551 625 0
-550 -551 -625 0
552 553 -626 0
-552 553 626 0
552 -553 626 0
-552 -553 -626 0
554 555 -627 0
-554 555 627 0
554 -555 627 0
-554 -555 -627 0
556 557 -628 0
-556 557 628 0
556 -557 628 0
-556 -557 -628 0
558 559 -629 0
-558 559 629 0
558 -559 629 0
-558 -559 -629 0
560 561 -630 0
-560 561 630 0
560 -561 630 0
-560 -561 -630 0
562 563 -631 0
-562 563 631 0
562 -563 631 0
-562 -563 -631 0
564 565 -632 0
-564 565 632 0
564 -565 632 0
-564 -565 -632 0
566 567 -633 0
-566 567 633 0
566 -567 633 0
-566 -567 -633 0
568 569 -634 0
-568 569 634 0
568 -569 634 0
-568 -569 -634 0
570 571 -635 0
-570 571 635 0
570 -571 635 0
-570 -571 -635 0
572 573 -636 0
-572 573 636 0
572 -573 636 0
-572 -573 -636 0
574 575 -637 0
-574 575 637 0
574 -575 637 0
-574 -575 -637 0
576 577 -638 0
-576 577 638 0
576 -577 638 0
-576 -577 -638 0
578 579 -639 0
-578 579 639 0
578 -579 639 0
-578 -579 -639 0
580 581 -640 0
-580 581 640 0
580 -581 640 0
-580 -581 -640 0
582 583 -641 0
-582 583 641 0
582 -583 641 0
-582 -583 -641 0
584 585 -642 0
-584 585 642 0
584 -585 642 0
-584 -585 -642 0
586 587 -643 0
-586 587 643 0
586 -587 643 0
-586 -587 -643 0
588 589 -644 0
-588 589 644 0
588 -589 644 0
-588 -589 -644 0
590 591 -645 0
-590 591 645 0
590 -591 645 0
-590 -591 -645 0
592 593 -646 0
-592 593 646 0
592 -593 646 0
-592 -593 -646 0
594 595 -647 0
-594 595 647 0
594 -595 647 0
-594 -595 -647 0
596 597 -648 0
-596 597 648 0
596 -597 648 0
-596 -597 -648 0
598 599 -649 0
-598 599 649 0
598 -599 649 0
-598 -599 -649 0
600 601 -650 0
-600 601 650 0
600 -601 650 0
-600 -601 -650 0
602 603 -651 0
-602 603 651 0
602 -603 651 0
-602 -603 -651 0
604 605 -652 0
-604 605 652 0
604 -605 652 0
-604 -605 -652 0
606 607 -653 0
-606 607 653 0
606 -607 653 0
-606 -607 -653 0
608 609 -654 0
-608 609 654 0
608 -609 654 0
-608 -609 -654 0
610 611 -655 0
-610 611 655 0
610 -611 655 0
-610 -611 -655 0
613 614 -656 0
-613 614 656 0
613 -614 656 0
-613 -614 -656 0
615 616 -657 0
-615 616 657 0
615 -616 657 0
-615 -616 -657 0
617 618 -658 0
-617 618 658 0
617 -618 658 0
-617 -618 -658 0
619 620 -659 0
-619 620 659 0
619 -620 659 0
-619 -620 -659 0
621 622 -660 0
-621 622 660 0
621 -622 660 0
-621 -622 -660 0
623 624 -661 0
-623 624 661 0
623 -624 661 0
-623 -624 -661 0
625 626 -662 0
-625 626 662 0
625 -626 662 0
-625 -626 -662 0
627 628 -663 0
-627 628 663 0
627 -628 663 0
-627 -628 -663 0
629 630 -664 0
-629 630 664 0
629 -630 664 0
-629 -630 -664 0
631 632 -665 0
-631 632 665 0
631 -632 665 0
-631 -632 -665 0
633 634 -666 0
-633 634 666 0
633 -634 666 0
-633 -634 -666 0
635 636 -667 0
-635 636 667 0
635 -636 667 0
-635 -636 -667 0
637 638 -668 0
-637 638 668 0
637 -638 668 0
-637 -638 -668 0
639 640 -669 0
-639 640 669 0
639 -640 669 0
-639 -640 -669 0
641 642 -670 0
-641 642 670 0
641 -642 670 0
-641 -642 -670 0
643 644 -671 0
-643 644 671 0
643 -644 671 0
-643 -644 -671 0
645 646 -672 0
-645 646 672 0
645 -646 672 0
-645 -646 -672 0
647 648 -673 0
-647 648 673 0
647 -648 673 0
-647 -648 -673 0
649 650 -674 0
-649 650 674 0
649 -650 674 0
-649 -650 -674 0
651 652 -675 0
-651 652 675 0
651 -652 675 0
-651 -652 -675 0
653 654 -676 0
-653 654 676 0
653 -654 676 0
-653 -654 -676 0
655 612 -677 0
-655 612 677 0
655 -612 677 0
-655 -612 -677 0
656 657 -678 0
-656 657 678 0
656 -657 678 0
-656 -657 -678 0
658 659 -679 0
-658 659 679 0
658 -659 679 0
-658 -659 -679 0
660 661 -680 0
-660 661 680 0
660 -661 680 0
-660 -661 -680 0
662 663 -681 0
-662 663 681 0
662 -663 681 0
-662 -663 -681 0
664 665 -682 0
-664 665 682 0
664 -665 682 0
-664 -665 -682 0
666 667 -683 0
-666 667 683 0
666 -667 683 0
-666 -667 -683 0
668 669 -684 0
-668 669 684 0
668 -669 684 0
-668 -669 -684 0
670 671 -685 0
-670 671 685 0
670 -671 685 0
-670 -671 -685 0
672 673 -686 0
-672 673 686 0
672 -673 686 0
-672 -673 -686 0
674 675 -687 0
-674 675 687 0
674 -675 687 0
-674 -675 -687 0
676 677 -688 0
-676 677 688 0
676 -677 688 0
-676 -677 -688 0
678 679 -689 0
-678 679 689 0
678 -679 689 0
-678 -679 -689 0
680 681 -690 0
-680 681 690 0
680 -681 690 0
-680 -681 -690 0
682 683 -691 0
-682 683 691 0
682 -683 691 0
-682 -683 -691 0
684 685 -692 0
-684 685 692 0
684 -685 692 0
-684 -685 -692 0
686 687 -693 0
-686 687 693 0
686 -687 693 0
-686 -687 -693 0
689 690 -694 0
-689 690 694 0
689 -690 694 0
-689 -690 -694 0
691 692 -695 0
-691 692 695 0
691 -692 695 0
-691 -692 -695 0
693 688 -696 0
-693 688 696 0
693 -688 696 0
-693 -688 -696 0
694 695 -697 0
-694 695 697 0
694 -695 697 0
-694 -695 -697 0
697 696 -349 0
-697 696 349 0
697 -696 349 0
-697 -696 -349 0
